Route #1: 40 42 20 18 30 1
Route #2: 26 17 49 15 19 32 34 13 46
Route #3: 3 31 24 28 11 21 39 14 23
Route #4: 4 45 12 50 22 9 16 38 48 2
Route #5: 43 7 33 35 51 29
Route #6: 47 44 10 5 8 27 37
Route #7: 36 6 25 41
Cost 759